\* Source Pyomo model name=unknown *\

min 
x43:
+0.00099723082790326438 x1
+0.050213332975632699 x10
+0 x11
+0.0010170597191810921 x12
+0.0010317387930989749 x13
+0.00098362961710985949 x14
+0.00098335464113811079 x15
+0.021309030507616324 x16
+0.016673998835616682 x17
+0 x2
+0.0010090349579783718 x3
+0 x4
+0.0009731625501995584 x5
+0.00099768090410082408 x6
+0.0010432275956717982 x7
+0 x8
+0 x9

s.t.

c_e_x44_:
+1 x16
-1 x18
= 0

c_e_x45_:
+1 x17
-1 x19
= 0

c_e_x46_:
+1 x10
-1 x20
= 0

c_e_x47_:
+1 x12
-0.5081079417073141 x34
= 0

c_e_x48_:
+1 x1
-0.7575058775719955 x35
= 0

c_e_x49_:
-0.8255443171834761 x36
+1 x5
= 0

c_e_x50_:
+1 x13
-0.90822520201377099 x37
= 0

c_e_x51_:
+1 x14
-0.090524195585658412 x38
= 0

c_e_x52_:
-0.68238267484104276 x39
+1 x6
= 0

c_e_x53_:
+1 x15
-0.70847899518574931 x40
= 0

c_e_x54_:
+1 x3
-1.5098279353427571 x41
= 0

c_e_x55_:
-1 x18
+1 x34
= 0

c_e_x56_:
-1 x28
+1 x35
= 0

c_e_x57_:
-1 x20
+1 x36
= 0

c_e_x58_:
-1 x19
+1 x37
= 0

c_e_x59_:
-1 x24
+1 x38
= 0

c_e_x60_:
-1 x25
+1 x39
= 0

c_e_x61_:
-1 x26
+1 x40
= 0

c_e_x62_:
-1 x27
+1 x41
= 0

c_e_x63_:
-1 x18
+1 x34
= 0

c_e_x64_:
-1 x19
+1 x37
= 0

c_e_x65_:
-1 x20
+1 x36
= 0

c_e_x66_:
-1 x24
+1 x38
= 0

c_e_x67_:
-1 x25
+1 x39
= 0

c_e_x68_:
-1 x26
+1 x40
= 0

c_e_x69_:
-1 x27
+1 x41
= 0

c_e_x70_:
-1 x28
+1 x35
= 0

c_e_x71_:
+1 x12
-1 x21
= 0

c_e_x72_:
+1 x13
-1 x22
= 0

c_e_x73_:
-1 x23
+1 x5
= 0

c_e_x74_:
+1 x14
-1 x29
= 0

c_e_x75_:
-1 x30
+1 x6
= 0

c_e_x76_:
+1 x15
-1 x31
= 0

c_e_x77_:
+1 x3
-1 x32
= 0

c_e_x78_:
+1 x1
-1 x33
= 0

c_e_x79_:
+1 x33
= 832.75185140469546

c_e_x80_:
+1 x29
= 8.1925124566213139

c_e_x81_:
+1 x30
= 22.90341466964939

c_e_x82_:
+1 x31
= 133.5513659715989

c_e_x83_:
+1 x32
= 412.08158542172697

c_e_x84_:
-1 x33
+1 x8
= 0

c_e_x85_:
-1 x29
+1 x4
= 0

c_e_x86_:
+1 x11
-1 x30
= 0

c_e_x87_:
+1 x2
-1 x31
= 0

c_e_x88_:
-1 x32
+1 x9
= 0

c_e_x89_:
+1 x21
+1 x22
+1 x23
-1 x24
-1 x25
-1 x26
-1 x27
-1 x28
= 0

c_e_x90_:
-1 x21
-1 x22
-1 x23
+1 x7
= 0

c_e_x91_:
+0 x10
+0 x16
+0.073200000000000001 x17
-1 x42
= 0

c_u_x92_:
+1 x42
<= 87.213999999999999

c_e_ONE_VAR_CONSTANT: 
ONE_VAR_CONSTANT = 1.0

bounds
   0 <= x1 <= 999999
   0 <= x2 <= +inf
   0 <= x3 <= 999999
   0 <= x4 <= +inf
   0 <= x5 <= 999999
   0 <= x6 <= 999999
   0 <= x7 <= +inf
   0 <= x8 <= +inf
   0 <= x9 <= +inf
   0 <= x10 <= +inf
   0 <= x11 <= +inf
   0 <= x12 <= 999999
   0 <= x13 <= 999999
   0 <= x14 <= 999999
   0 <= x15 <= 999999
   435.58004059137522 <= x16 <= 435.58004059137522
   0 <= x17 <= +inf
   0 <= x18 <= +inf
   0 <= x19 <= +inf
   0 <= x20 <= +inf
   0 <= x21 <= +inf
   0 <= x22 <= +inf
   0 <= x23 <= +inf
   0 <= x24 <= +inf
   0 <= x25 <= +inf
   0 <= x26 <= +inf
   0 <= x27 <= +inf
   0 <= x28 <= +inf
   0 <= x29 <= +inf
   0 <= x30 <= +inf
   0 <= x31 <= +inf
   0 <= x32 <= +inf
   0 <= x33 <= +inf
   0 <= x34 <= +inf
   0 <= x35 <= +inf
   0 <= x36 <= +inf
   0 <= x37 <= +inf
   0 <= x38 <= +inf
   0 <= x39 <= +inf
   0 <= x40 <= +inf
   0 <= x41 <= +inf
   0 <= x42 <= +inf
end
